
Gurobi 9.5.0 (mac64[x86]) logging started Tue  3 Jan 17:15:11 2023

Set parameter LogFile to value "/Users/nikitabelyak/Dropbox (Aalto)/TSEP/Nordic_case_study/2022 data/optimisation_results/03_Jan_2023_17_15_11.log"
Set parameter Threads to value 6
